Minimize
	value: tt

Subject to
tt + 500 s_1_1 > 0.0
tt - t_1_1 - 500.000000 s_1_1 > -485.354300
tt + 500 s_2_1 > 0.0
tt - t_2_1 - 500.000000 s_2_1 > -483.164600
tt + 500 s_1_2 > 0.0
tt - t_1_2 - 500.000000 s_1_2 > -467.383600
tt + 500 s_2_2 > 0.0
tt - t_2_2 - 500.000000 s_2_2 > -453.022133
tt + 500 s_1_3 > 0.0
tt - t_1_3 - 500.000000 s_1_3 > -446.899100
tt + 500 s_2_3 > 0.0
tt - t_2_3 - 500.000000 s_2_3 > -419.573500
tt + 500 s_1_4 > 0.0
tt - t_1_4 - 500.000000 s_1_4 > -492.441200
tt + 500 s_2_4 > 0.0
tt - t_2_4 - 500.000000 s_2_4 > -487.970100
tt + 500 s_1_5 > 0.0
tt - t_1_5 - 504.000000 s_1_5 + 4.000000 s_1_4 > -499.341600
tt + 500 s_2_5 > 0.0
tt - t_2_5 - 504.000000 s_2_5 + 4.000000 s_2_4 > -497.760222
s_1_1 + s_2_1  = 1
s_1_2 + s_2_2  = 1
s_1_3 + s_2_3  = 1
s_1_4 + s_2_4  = 1
s_1_5 + s_2_5  = 1
s_1_1 + s_1_2 + 500 r_1_1_2 >= 2
- s_1_1 - s_1_2 - 500 r_1_1_2 >= -501
t_1_1 - t_1_2 - 500.000000 u_1_1_2 + 2048.000000 r_1_1_2 > -467.383600
s_2_1 + s_2_2 + 500 r_2_1_2 >= 2
- s_2_1 - s_2_2 - 500 r_2_1_2 >= -501
t_2_1 - t_2_2 - 500.000000 u_2_1_2 + 2048.000000 r_2_1_2 > -453.022133
s_1_1 + s_1_3 + 500 r_1_1_3 >= 2
- s_1_1 - s_1_3 - 500 r_1_1_3 >= -501
t_1_1 - t_1_3 - 500.000000 u_1_1_3 + 2048.000000 r_1_1_3 > -446.899100
s_2_1 + s_2_3 + 500 r_2_1_3 >= 2
- s_2_1 - s_2_3 - 500 r_2_1_3 >= -501
t_2_1 - t_2_3 - 500.000000 u_2_1_3 + 2048.000000 r_2_1_3 > -419.573500
s_1_1 + s_1_4 + 500 r_1_1_4 >= 2
- s_1_1 - s_1_4 - 500 r_1_1_4 >= -501
t_1_1 - t_1_4 - 500.000000 u_1_1_4 + 2048.000000 r_1_1_4 > -492.441200
s_2_1 + s_2_4 + 500 r_2_1_4 >= 2
- s_2_1 - s_2_4 - 500 r_2_1_4 >= -501
t_2_1 - t_2_4 - 500.000000 u_2_1_4 + 2048.000000 r_2_1_4 > -487.970100
t_1_5 - t_1_1 - 500.000000 s_1_1 > -485.354300
t_1_5 - t_2_1 - 500.000000 s_2_1 > -483.164600
t_2_5 - t_1_1 - 500.000000 s_1_1 > -485.354300
t_2_5 - t_2_1 - 500.000000 s_2_1 > -483.164600
s_1_2 + s_1_1 + 500 r_1_1_2 >= 2
- s_1_2 - s_1_1 - 500 r_1_1_2 >= -501
t_1_2 - t_1_1 + 500.000000 u_1_1_2 + 2048.000000 r_1_1_2 > 14.645700
s_2_2 + s_2_1 + 500 r_2_1_2 >= 2
- s_2_2 - s_2_1 - 500 r_2_1_2 >= -501
t_2_2 - t_2_1 + 500.000000 u_2_1_2 + 2048.000000 r_2_1_2 > 16.835400
s_1_2 + s_1_3 + 500 r_1_2_3 >= 2
- s_1_2 - s_1_3 - 500 r_1_2_3 >= -501
t_1_2 - t_1_3 - 500.000000 u_1_2_3 + 2048.000000 r_1_2_3 > -446.899100
s_2_2 + s_2_3 + 500 r_2_2_3 >= 2
- s_2_2 - s_2_3 - 500 r_2_2_3 >= -501
t_2_2 - t_2_3 - 500.000000 u_2_2_3 + 2048.000000 r_2_2_3 > -419.573500
s_1_2 + s_1_4 + 500 r_1_2_4 >= 2
- s_1_2 - s_1_4 - 500 r_1_2_4 >= -501
t_1_2 - t_1_4 - 500.000000 u_1_2_4 + 2048.000000 r_1_2_4 > -492.441200
s_2_2 + s_2_4 + 500 r_2_2_4 >= 2
- s_2_2 - s_2_4 - 500 r_2_2_4 >= -501
t_2_2 - t_2_4 - 500.000000 u_2_2_4 + 2048.000000 r_2_2_4 > -487.970100
t_1_5 - t_1_2 - 500.000000 s_1_2 > -467.383600
t_1_5 - t_2_2 - 500.000000 s_2_2 > -453.022133
t_2_5 - t_1_2 - 500.000000 s_1_2 > -467.383600
t_2_5 - t_2_2 - 500.000000 s_2_2 > -453.022133
s_1_3 + s_1_1 + 500 r_1_1_3 >= 2
- s_1_3 - s_1_1 - 500 r_1_1_3 >= -501
t_1_3 - t_1_1 + 500.000000 u_1_1_3 + 2048.000000 r_1_1_3 > 14.645700
s_2_3 + s_2_1 + 500 r_2_1_3 >= 2
- s_2_3 - s_2_1 - 500 r_2_1_3 >= -501
t_2_3 - t_2_1 + 500.000000 u_2_1_3 + 2048.000000 r_2_1_3 > 16.835400
s_1_3 + s_1_2 + 500 r_1_2_3 >= 2
- s_1_3 - s_1_2 - 500 r_1_2_3 >= -501
t_1_3 - t_1_2 + 500.000000 u_1_2_3 + 2048.000000 r_1_2_3 > 32.616400
s_2_3 + s_2_2 + 500 r_2_2_3 >= 2
- s_2_3 - s_2_2 - 500 r_2_2_3 >= -501
t_2_3 - t_2_2 + 500.000000 u_2_2_3 + 2048.000000 r_2_2_3 > 46.977867
s_1_3 + s_1_4 + 500 r_1_3_4 >= 2
- s_1_3 - s_1_4 - 500 r_1_3_4 >= -501
t_1_3 - t_1_4 - 500.000000 u_1_3_4 + 2048.000000 r_1_3_4 > -492.441200
s_2_3 + s_2_4 + 500 r_2_3_4 >= 2
- s_2_3 - s_2_4 - 500 r_2_3_4 >= -501
t_2_3 - t_2_4 - 500.000000 u_2_3_4 + 2048.000000 r_2_3_4 > -487.970100
t_1_5 - t_1_3 - 500.000000 s_1_3 > -446.899100
t_1_5 - t_2_3 - 500.000000 s_2_3 > -419.573500
t_2_5 - t_1_3 - 500.000000 s_1_3 > -446.899100
t_2_5 - t_2_3 - 500.000000 s_2_3 > -419.573500
s_1_4 + s_1_1 + 500 r_1_1_4 >= 2
- s_1_4 - s_1_1 - 500 r_1_1_4 >= -501
t_1_4 - t_1_1 + 500.000000 u_1_1_4 + 2048.000000 r_1_1_4 > 14.645700
s_2_4 + s_2_1 + 500 r_2_1_4 >= 2
- s_2_4 - s_2_1 - 500 r_2_1_4 >= -501
t_2_4 - t_2_1 + 500.000000 u_2_1_4 + 2048.000000 r_2_1_4 > 16.835400
s_1_4 + s_1_2 + 500 r_1_2_4 >= 2
- s_1_4 - s_1_2 - 500 r_1_2_4 >= -501
t_1_4 - t_1_2 + 500.000000 u_1_2_4 + 2048.000000 r_1_2_4 > 32.616400
s_2_4 + s_2_2 + 500 r_2_2_4 >= 2
- s_2_4 - s_2_2 - 500 r_2_2_4 >= -501
t_2_4 - t_2_2 + 500.000000 u_2_2_4 + 2048.000000 r_2_2_4 > 46.977867
s_1_4 + s_1_3 + 500 r_1_3_4 >= 2
- s_1_4 - s_1_3 - 500 r_1_3_4 >= -501
t_1_4 - t_1_3 + 500.000000 u_1_3_4 + 2048.000000 r_1_3_4 > 53.100900
s_2_4 + s_2_3 + 500 r_2_3_4 >= 2
- s_2_4 - s_2_3 - 500 r_2_3_4 >= -501
t_2_4 - t_2_3 + 500.000000 u_2_3_4 + 2048.000000 r_2_3_4 > 80.426500
t_1_5 - t_1_4 - 500.000000 s_1_4 > -492.441200
t_1_5 - t_2_4 - 500.000000 s_2_4 > -487.970100
t_2_5 - t_1_4 - 500.000000 s_1_4 > -492.441200
t_2_5 - t_2_4 - 500.000000 s_2_4 > -487.970100
Binary
s_1_1
s_2_1
s_1_2
s_2_2
s_1_3
s_2_3
s_1_4
s_2_4
s_1_5
s_2_5
u_1_1_2
r_1_1_2
u_2_1_2
r_2_1_2
u_1_1_3
r_1_1_3
u_2_1_3
r_2_1_3
u_1_1_4
r_1_1_4
u_2_1_4
r_2_1_4
u_1_2_3
r_1_2_3
u_2_2_3
r_2_2_3
u_1_2_4
r_1_2_4
u_2_2_4
r_2_2_4
u_1_3_4
r_1_3_4
u_2_3_4
r_2_3_4

End
